Gurobi Optimizer version 9.1.2 build v9.1.2rc0 (linux64)
Thread count: 36 physical cores, 72 logical processors, using up to 32 threads
Optimize a model with 12 rows, 57 columns and 590 nonzeros
Model fingerprint: 0xf32eec78
Model has 47 quadratic constraints
Coefficient statistics:
  Matrix range     [2e-05, 3e+00]
  QMatrix range    [1e+00, 1e+00]
  QLMatrix range   [1e+00, 1e+00]
  Objective range  [8e-03, 7e-01]
  Bounds range     [1e+00, 1e+00]
  RHS range        [1e+00, 1e+00]
Presolve removed 9 rows and 0 columns

Continuous model is non-convex -- solving as a MIP.

Presolve removed 9 rows and 0 columns
Presolve time: 0.00s
Presolved: 189 rows, 57 columns, 443 nonzeros
Presolved model has 47 bilinear constraint(s)
Variable types: 57 continuous, 0 integer (0 binary)

Root relaxation: objective -1.743721e+00, 44 iterations, 0.00 seconds

    Nodes    |    Current Node    |     Objective Bounds      |     Work
 Expl Unexpl |  Obj  Depth IntInf | Incumbent    BestBd   Gap | It/Node Time

     0     0   -1.74372    0   38          -   -1.74372      -     -    0s
H    0     0                       0.6147548   -1.74372   384%     -    0s
     0     0   -1.64739    0    1    0.61475   -1.64739   368%     -    0s
H    0     0                      -1.6450460   -1.64739  0.14%     -    0s
     0     0     cutoff    0        -1.64505   -1.64505  0.00%     -    0s

Cutting planes:
  RLT: 25
  BQP: 3

Explored 1 nodes (76 simplex iterations) in 0.02 seconds
Thread count was 32 (of 72 available processors)

Solution count 2: -1.64505 0.614755 
No other solutions better than -1.64505

Optimal solution found (tolerance 1.00e-04)
Best objective -1.645045978473e+00, best bound -1.645045978473e+00, gap 0.0000%

User-callback calls 79, time in user-callback 0.01 sec
Gurobi Optimizer version 9.1.2 build v9.1.2rc0 (linux64)
Thread count: 36 physical cores, 72 logical processors, using up to 32 threads
Optimize a model with 60 rows, 300 columns and 15500 nonzeros
Model fingerprint: 0xd7d74664
Model has 250 quadratic constraints
Coefficient statistics:
  Matrix range     [1e-06, 4e+00]
  QMatrix range    [1e+00, 1e+00]
  QLMatrix range   [1e+00, 1e+00]
  Objective range  [3e-04, 1e+00]
  Bounds range     [1e+00, 1e+00]
  RHS range        [1e+00, 1e+00]
Presolve removed 11 rows and 0 columns

Continuous model is non-convex -- solving as a MIP.

Presolve removed 11 rows and 0 columns
Presolve time: 0.01s
Presolved: 1049 rows, 300 columns, 14161 nonzeros
Presolved model has 250 bilinear constraint(s)
Variable types: 300 continuous, 0 integer (0 binary)

Root relaxation: objective -2.721522e+01, 361 iterations, 0.02 seconds

    Nodes    |    Current Node    |     Objective Bounds      |     Work
 Expl Unexpl |  Obj  Depth IntInf | Incumbent    BestBd   Gap | It/Node Time

     0     0  -27.21522    0  209          -  -27.21522      -     -    0s
     0     0  -24.58002    0  211          -  -24.58002      -     -    0s
     0     0  -23.90336    0  171          -  -23.90336      -     -    0s
     0     0  -23.88492    0  161          -  -23.88492      -     -    0s
     0     0  -23.87024    0  151          -  -23.87024      -     -    0s
     0     0  -23.86979    0  151          -  -23.86979      -     -    0s
     0     0  -23.86979    0  151          -  -23.86979      -     -    0s
H    0     0                     -18.2466865  -23.86979  30.8%     -    0s
H    0     0                     -18.3142676  -23.86979  30.3%     -    0s
     0     2  -23.86979    0  151  -18.31427  -23.86979  30.3%     -    0s
* 1844  1750              72     -18.4938733  -22.54869  21.9%  59.4    1s
* 2132  1904             105     -19.5846085  -22.54869  15.1%  55.6    1s
* 2134  1904             106     -19.5846216  -22.54869  15.1%  55.5    1s
* 2271  1778              53     -20.4455869  -22.51373  10.1%  54.3    1s
* 6892  1526             121     -20.6676466  -22.51373  8.93%  61.9    4s
* 6965  1568              83     -20.7008404  -22.51373  8.76%  61.7    4s
* 7213  1564              81     -20.7008508  -22.51373  8.76%  61.6    4s
  7349  1571     cutoff   27       -20.70085  -22.51373  8.76%  61.5    5s
* 9912  1896             113     -20.7771122  -22.12158  6.47%  62.9    6s
*10339  1810             126     -20.7771514  -22.12158  6.47%  62.0    6s
*10673  1964              90     -20.7874984  -22.05017  6.07%  61.8    6s
*10676  1964              92     -20.7875212  -22.05017  6.07%  61.8    6s
*11149  1855              85     -20.8005621  -22.00847  5.81%  61.1    6s
*11681  1786              90     -20.8389205  -22.00847  5.61%  61.0    6s
*11682  1786              90     -20.8389212  -22.00847  5.61%  60.9    6s
*12278  1924              89     -20.9311563  -21.99851  5.10%  60.8    6s
*13176  1777              77     -21.0316820  -21.79534  3.63%  59.9    7s
*13249  1777              80     -21.1153510  -21.75217  3.02%  59.8    7s
*13250  1777              80     -21.1153723  -21.75217  3.02%  59.8    7s
*13548  1777              77     -21.1168559  -21.75217  3.01%  59.5    7s
*16610  1440              56     -21.1188233  -21.35900  1.14%  59.7    8s
*16611  1440              56     -21.1188236  -21.35900  1.14%  59.7    8s
*16612  1440              55     -21.1188288  -21.35900  1.14%  59.7    8s
*17097  1440              53     -21.1193677  -21.35900  1.13%  59.4    8s
*17308  1699              80     -21.1208867  -21.32297  0.96%  59.0    8s
*17310  1699              81     -21.1208879  -21.32297  0.96%  59.0    8s
*18593  2090              98     -21.1304104  -21.25725  0.60%  57.1    9s
*18596  2090             100     -21.1304251  -21.25725  0.60%  57.1    9s
*18598  2090             101     -21.1304258  -21.25725  0.60%  57.1    9s
*18599  2090             101     -21.1304265  -21.25725  0.60%  57.1    9s
*19355  2090              80     -21.1445205  -21.25725  0.53%  55.7    9s
*19356  2090              81     -21.1445224  -21.25725  0.53%  55.7    9s
*19495  1674              79     -21.1446447  -21.21318  0.32%  55.5    9s
*19498  1674              79     -21.1446515  -21.21318  0.32%  55.5    9s
*19500  1674              77     -21.1453643  -21.21318  0.32%  55.5    9s
*19884  1674              75     -21.1467572  -21.19789  0.24%  55.0    9s
*19885  1674              75     -21.1467596  -21.19789  0.24%  55.0    9s
*20477  1938              76     -21.1502392  -21.18869  0.18%  54.3    9s
*21839  2486              68     -21.1505495  -21.18769  0.18%  52.0    9s
*21841  2486              69     -21.1505542  -21.18769  0.18%  52.0    9s
*21846  2486              70     -21.1505543  -21.18769  0.18%  51.9    9s
*21870  2486              59     -21.1545080  -21.18769  0.16%  51.9    9s
*21951  2486              64     -21.1594977  -21.18769  0.13%  51.7    9s
 23690  2419     cutoff   63       -21.15950  -21.18047  0.10%  48.5   10s
*23719  2419              59     -21.1595076  -21.18047  0.10%  48.5   10s
*23721  2419              60     -21.1595095  -21.18047  0.10%  48.5   10s
*23722  2419              60     -21.1595095  -21.18047  0.10%  48.5   10s
*23792  2419              64     -21.1600835  -21.17855  0.09%  48.3   10s
*23796  2419              67     -21.1601058  -21.17855  0.09%  48.3   10s
*23826  2419              69     -21.1613004  -21.17845  0.08%  48.3   10s
*24211  2419              69     -21.1615159  -21.17397  0.06%  47.6   10s
*24212  2419              69     -21.1615174  -21.17397  0.06%  47.6   10s
*24214  2419              69     -21.1615196  -21.17397  0.06%  47.6   10s
*24322  2419              60     -21.1630587  -21.17397  0.05%  47.5   10s
*24324  2419              61     -21.1630936  -21.17397  0.05%  47.5   10s
*24363  2419              67     -21.1632490  -21.17397  0.05%  47.4   10s
*25681  1965              66     -21.1634272  -21.17171  0.04%  45.2   10s
*25689  1965              68     -21.1634535  -21.17171  0.04%  45.2   10s
*25805  1965              69     -21.1639371  -21.16941  0.03%  45.0   10s
*25807  1965              70     -21.1639596  -21.16941  0.03%  45.0   10s
*25873  1965              69     -21.1640742  -21.16865  0.02%  44.9   10s
*25874  1965              69     -21.1640769  -21.16865  0.02%  44.9   10s
*27700  1952              67     -21.1640858  -21.16632  0.01%  42.3   10s
*27743  1952              71     -21.1642017  -21.16625  0.01%  42.2   10s
*27747  1952              71     -21.1642069  -21.16625  0.01%  42.2   10s
*27887  1952              70     -21.1643080  -21.16591  0.01%  42.0   10s
*28457  1952              71     -21.1643103  -21.16544  0.01%  41.2   10s
*28487  1952              69     -21.1643407  -21.16544  0.01%  41.2   10s
*28620  1952              64     -21.1643435  -21.16541  0.01%  41.0   10s
*28681  1952              63     -21.1643596  -21.16541  0.00%  41.0   10s
*28929  1952              71     -21.1644241  -21.16541  0.00%  40.6   10s
*28939  1952              73     -21.1644251  -21.16541  0.00%  40.6   10s

Explored 29558 nodes (1179400 simplex iterations) in 10.49 seconds
Thread count was 32 (of 72 available processors)

Solution count 10: -21.1644 -21.1644 -21.1644 ... -21.1641

Optimal solution found (tolerance 1.00e-04)
Best objective -2.116442507931e+01, best bound -2.116541432619e+01, gap 0.0047%

User-callback calls 60386, time in user-callback 0.01 sec



objective value: -21.164425079311727
objective bound: -21.165414326190916
x_opt: [0.0, 1.0, 1.0, 0.0, 0.0, 0.0, 1.0, 1.0, 0.0, 0.0, 0.2547204808232534, 0.41725474064568496, 0.0, 1.0, 1.0, 1.0, 0.0, 1.0, 0.0, 0.0, 0.0, 1.0, 1.0, 1.0, 0.0, 1.0, 1.0, 1.0, 0.0, 0.9565022884407773, 1.0, 0.8213461248153302, 0.0, 0.21158777033073942, 1.0, 1.0, 1.0, 1.0, 0.3678339929525053, 1.0, 0.8685286784392439, 0.23596502356762, 1.0, 0.0, 0.0, 0.7580695200776144, 0.10528866025309641, 0.0992628612143004, 0.0, 1.0]
GUROBI solution time: 10.494091033935547

